(set-info :smt-lib-version 2.6)
(set-logic UFLIA)
(set-info :source |Benchmarks from the paper: "Extending Sledgehammer with SMT Solvers" by Jasmin Blanchette, Sascha Bohme, and Lawrence C. Paulson, CADE 2011.  Translated to SMT2 by Andrew Reynolds and Morgan Deters.|)
(set-info :category "industrial")
(set-info :status unknown)
(declare-sort S1 0)
(declare-sort S2 0)
(declare-sort S3 0)
(declare-sort S4 0)
(declare-sort S5 0)
(declare-sort S6 0)
(declare-sort S7 0)
(declare-sort S8 0)
(declare-sort S9 0)
(declare-sort S10 0)
(declare-sort S11 0)
(declare-sort S12 0)
(declare-sort S13 0)
(declare-sort S14 0)
(declare-sort S15 0)
(declare-sort S16 0)
(declare-sort S17 0)
(declare-sort S18 0)
(declare-sort S19 0)
(declare-sort S20 0)
(declare-sort S21 0)
(declare-sort S22 0)
(declare-sort S23 0)
(declare-sort S24 0)
(declare-sort S25 0)
(declare-sort S26 0)
(declare-sort S27 0)
(declare-sort S28 0)
(declare-sort S29 0)
(declare-sort S30 0)
(declare-sort S31 0)
(declare-sort S32 0)
(declare-sort S33 0)
(declare-sort S34 0)
(declare-sort S35 0)
(declare-sort S36 0)
(declare-fun f1 () S1)
(declare-fun f2 () S1)
(declare-fun f3 () S2)
(declare-fun f4 (S3 S2) S2)
(declare-fun f5 (S4 S5) S3)
(declare-fun f6 () S4)
(declare-fun f7 () S5)
(declare-fun f8 () S2)
(declare-fun f9 (S6 S7) S1)
(declare-fun f10 () S7)
(declare-fun f11 (S7 S6) S1)
(declare-fun f12 (S8) S7)
(declare-fun f13 () S8)
(declare-fun f14 (S5 S10) S1)
(declare-fun f15 (S9) S5)
(declare-fun f16 () S10)
(declare-fun f17 () S10)
(declare-fun f18 (S11 S8) S5)
(declare-fun f19 (S12 S10) S11)
(declare-fun f20 (S2) S12)
(declare-fun f21 (S13 Int) S8)
(declare-fun f22 () S13)
(declare-fun f23 (S14 S8) Int)
(declare-fun f24 () S14)
(declare-fun f25 (S7 S7) S1)
(declare-fun f26 (S16 S15) S6)
(declare-fun f27 (S17 S2) S16)
(declare-fun f28 (S18 S15) S17)
(declare-fun f29 () S18)
(declare-fun f30 (S15 S9) S5)
(declare-fun f31 () S2)
(declare-fun f32 (S20 S6) S8)
(declare-fun f33 (S21 S19) S20)
(declare-fun f34 () S21)
(declare-fun f35 () S20)
(declare-fun f36 (S23 S22) S2)
(declare-fun f37 () S23)
(declare-fun f38 (S24 S2) S8)
(declare-fun f39 () S24)
(declare-fun f40 () S24)
(declare-fun f41 (S25 S2) S3)
(declare-fun f42 () S25)
(declare-fun f43 (S26 S27) S2)
(declare-fun f44 () S26)
(declare-fun f45 (S28 S22) S27)
(declare-fun f46 () S28)
(declare-fun f47 (S2) S1)
(declare-fun f48 (S29 S5) S25)
(declare-fun f49 () S29)
(declare-fun f50 (S30 S10) S5)
(declare-fun f51 (S2) S30)
(declare-fun f52 (S33 S32) S2)
(declare-fun f53 (S34 S22) S33)
(declare-fun f54 (S35 S31) S34)
(declare-fun f55 () S35)
(declare-fun f56 () S27)
(declare-fun f57 (S36 S2) S27)
(declare-fun f58 () S36)
(declare-fun f59 () S1)
(assert (not (= f1 f2)))
(assert (not (=> (= f3 (f4 (f5 f6 f7) f8)) (=> (forall ((?v0 S6)) (=> (= (f9 ?v0 f10) f1) (= (f11 (f12 f13) ?v0) f1))) (forall ((?v0 S9)) (let ((?v_0 (f15 ?v0))) (=> (= (f14 ?v_0 f16) f1) (and (= (f14 ?v_0 f17) f1) (not (= (f14 f7 f17) f1))))))))))
(assert (forall ((?v0 S8)) (=> (forall ((?v1 S6)) (=> (= (f9 ?v1 f10) f1) (= (f11 (f12 ?v0) ?v1) f1))) (forall ((?v1 S9) (?v2 S10)) (=> (and (= (f14 (f15 ?v1) ?v2) f1) (= (f14 f7 ?v2) f1)) (forall ((?v3 S10)) (=> (= (f14 (f18 (f19 (f20 f8) ?v2) ?v0) ?v3) f1) (= (f14 (f15 ?v1) ?v3) f1))))))))
(assert (= (f14 (f18 (f19 (f20 f3) f16) f13) f17) f1))
(assert (forall ((?v0 S7) (?v1 S8)) (=> (forall ((?v2 S6)) (=> (= (f9 ?v2 ?v0) f1) (= (f11 (f12 (f21 f22 (+ (f23 f24 ?v1) 1))) ?v2) f1))) (forall ((?v2 S6)) (=> (= (f9 ?v2 ?v0) f1) (= (f11 (f12 ?v1) ?v2) f1))))))
(assert (forall ((?v0 S8) (?v1 S6)) (=> (= (f11 (f12 (f21 f22 (+ (f23 f24 ?v0) 1))) ?v1) f1) (= (f11 (f12 ?v0) ?v1) f1))))
(assert (forall ((?v0 S5) (?v1 S10) (?v2 S2) (?v3 S8)) (=> (not (= (f14 ?v0 ?v1) f1)) (= (f14 (f18 (f19 (f20 (f4 (f5 f6 ?v0) ?v2)) ?v1) ?v3) ?v1) f1))))
(assert (forall ((?v0 S5) (?v1 S10) (?v2 S2) (?v3 S8) (?v4 S10) (?v5 S10)) (let ((?v_0 (f20 (f4 (f5 f6 ?v0) ?v2)))) (=> (= (f14 ?v0 ?v1) f1) (=> (= (f14 (f18 (f19 (f20 ?v2) ?v1) ?v3) ?v4) f1) (=> (= (f14 (f18 (f19 ?v_0 ?v4) ?v3) ?v5) f1) (= (f14 (f18 (f19 ?v_0 ?v1) ?v3) ?v5) f1)))))))
(assert (forall ((?v0 S7) (?v1 S7)) (= (= (f25 ?v0 ?v1) f1) (forall ((?v2 S8)) (=> (forall ((?v3 S6)) (=> (= (f9 ?v3 ?v0) f1) (= (f11 (f12 ?v2) ?v3) f1))) (forall ((?v3 S6)) (=> (= (f9 ?v3 ?v1) f1) (= (f11 (f12 ?v2) ?v3) f1))))))))
(assert (forall ((?v0 S5) (?v1 S2) (?v2 S5) (?v3 S2)) (= (= (f4 (f5 f6 ?v0) ?v1) (f4 (f5 f6 ?v2) ?v3)) (and (= ?v0 ?v2) (= ?v1 ?v3)))))
(assert (forall ((?v0 S5) (?v1 S2) (?v2 S10) (?v3 S8) (?v4 S10)) (=> (= (f14 (f18 (f19 (f20 (f4 (f5 f6 ?v0) ?v1)) ?v2) ?v3) ?v4) f1) (=> (=> (= ?v4 ?v2) (=> (not (= (f14 ?v0 ?v2) f1)) false)) (=> (forall ((?v5 S10)) (=> (= (f14 ?v0 ?v2) f1) (=> (= (f14 (f18 (f19 (f20 ?v1) ?v2) ?v3) ?v5) f1) (=> (= (f14 (f18 (f19 (f20 (f4 (f5 f6 ?v0) ?v1)) ?v5) ?v3) ?v4) f1) false)))) false)))))
(assert (forall ((?v0 S2) (?v1 S10) (?v2 S8) (?v3 S10)) (let ((?v_0 (f19 (f20 ?v0) ?v1))) (=> (= (f14 (f18 ?v_0 ?v2) ?v3) f1) (= (f14 (f18 ?v_0 (f21 f22 (+ (f23 f24 ?v2) 1))) ?v3) f1)))))
(assert (forall ((?v0 S2) (?v1 S10) (?v2 S8) (?v3 S10) (?v4 S8)) (let ((?v_0 (f19 (f20 ?v0) ?v1))) (=> (= (f14 (f18 ?v_0 ?v2) ?v3) f1) (=> (<= (f23 f24 ?v2) (f23 f24 ?v4)) (= (f14 (f18 ?v_0 ?v4) ?v3) f1))))))
(assert (forall ((?v0 S8) (?v1 S15) (?v2 S2) (?v3 S15)) (= (= (f11 (f12 ?v0) (f26 (f27 (f28 f29 ?v1) ?v2) ?v3)) f1) (forall ((?v4 S9) (?v5 S10)) (=> (= (f14 (f30 ?v1 ?v4) ?v5) f1) (forall ((?v6 S10)) (=> (= (f14 (f18 (f19 (f20 ?v2) ?v5) ?v0) ?v6) f1) (= (f14 (f30 ?v3 ?v4) ?v6) f1))))))))
(assert (forall ((?v0 S2) (?v1 S10) (?v2 S8) (?v3 S10) (?v4 S2) (?v5 S10) (?v6 S8) (?v7 S10)) (=> (= (f14 (f18 (f19 (f20 ?v0) ?v1) ?v2) ?v3) f1) (=> (= (f14 (f18 (f19 (f20 ?v4) ?v5) ?v6) ?v7) f1) (exists ((?v8 S8)) (and (= (f14 (f18 (f19 (f20 ?v0) ?v1) ?v8) ?v3) f1) (= (f14 (f18 (f19 (f20 ?v4) ?v5) ?v8) ?v7) f1)))))))
(assert (forall ((?v0 S10) (?v1 S8)) (= (f14 (f18 (f19 (f20 f31) ?v0) ?v1) ?v0) f1)))
(assert (forall ((?v0 S10) (?v1 S8) (?v2 S10)) (=> (= (f14 (f18 (f19 (f20 f31) ?v0) ?v1) ?v2) f1) (=> (=> (= ?v2 ?v0) false) false))))
(assert (forall ((?v0 S15) (?v1 S2) (?v2 S15) (?v3 S15) (?v4 S2) (?v5 S15)) (= (= (f26 (f27 (f28 f29 ?v0) ?v1) ?v2) (f26 (f27 (f28 f29 ?v3) ?v4) ?v5)) (and (= ?v0 ?v3) (and (= ?v1 ?v4) (= ?v2 ?v5))))))
(assert (forall ((?v0 S5) (?v1 S2)) (not (= (f4 (f5 f6 ?v0) ?v1) f31))))
(assert (forall ((?v0 S5) (?v1 S2)) (not (= f31 (f4 (f5 f6 ?v0) ?v1)))))
(assert (forall ((?v0 S19) (?v1 S15) (?v2 S2) (?v3 S15)) (= (f32 (f33 f34 ?v0) (f26 (f27 (f28 f29 ?v1) ?v2) ?v3)) (f21 f22 0))))
(assert (forall ((?v0 S15) (?v1 S2) (?v2 S15)) (= (f32 f35 (f26 (f27 (f28 f29 ?v0) ?v1) ?v2)) (f21 f22 0))))
(assert (forall ((?v0 S6)) (=> (forall ((?v1 S15) (?v2 S2) (?v3 S15)) (=> (= ?v0 (f26 (f27 (f28 f29 ?v1) ?v2) ?v3)) false)) false)))
(assert (forall ((?v0 S15) (?v1 S22) (?v2 S15)) (= (f11 (f12 (f21 f22 0)) (f26 (f27 (f28 f29 ?v0) (f36 f37 ?v1)) ?v2)) f1)))
(assert (= (f38 f39 f31) (f21 f22 0)))
(assert (forall ((?v0 S5) (?v1 S2)) (= (f38 f39 (f4 (f5 f6 ?v0) ?v1)) (f21 f22 (+ (f23 f24 (f38 f39 ?v1)) (+ 0 1))))))
(assert (= (f38 f40 f31) (f21 f22 0)))
(assert (forall ((?v0 S2) (?v1 S10) (?v2 S8) (?v3 S10) (?v4 S2) (?v5 S10)) (=> (= (f14 (f18 (f19 (f20 ?v0) ?v1) ?v2) ?v3) f1) (=> (= (f14 (f18 (f19 (f20 ?v4) ?v3) ?v2) ?v5) f1) (= (f14 (f18 (f19 (f20 (f4 (f41 f42 ?v0) ?v4)) ?v1) ?v2) ?v5) f1)))))
(assert (forall ((?v0 S5) (?v1 S2)) (= (f38 f40 (f4 (f5 f6 ?v0) ?v1)) (f21 f22 (+ (f23 f24 (f38 f40 ?v1)) (+ 0 1))))))
(assert (forall ((?v0 S22) (?v1 S2) (?v2 S2)) (not (= (f36 f37 ?v0) (f4 (f41 f42 ?v1) ?v2)))))
(assert (forall ((?v0 S2) (?v1 S2) (?v2 S22)) (not (= (f4 (f41 f42 ?v0) ?v1) (f36 f37 ?v2)))))
(assert (forall ((?v0 S22)) (= (f38 f39 (f36 f37 ?v0)) (f21 f22 0))))
(assert (forall ((?v0 S22)) (= (f38 f40 (f36 f37 ?v0)) (f21 f22 0))))
(assert (forall ((?v0 S2) (?v1 S2)) (= (f38 f39 (f4 (f41 f42 ?v0) ?v1)) (f21 f22 (+ (+ (f23 f24 (f38 f39 ?v0)) (f23 f24 (f38 f39 ?v1))) (+ 0 1))))))
(assert (forall ((?v0 S2) (?v1 S2)) (= (f38 f40 (f4 (f41 f42 ?v0) ?v1)) (f21 f22 (+ (+ (f23 f24 (f38 f40 ?v0)) (f23 f24 (f38 f40 ?v1))) (+ 0 1))))))
(assert (forall ((?v0 S22) (?v1 S22)) (= (= (f36 f37 ?v0) (f36 f37 ?v1)) (= ?v0 ?v1))))
(assert (forall ((?v0 S2) (?v1 S2) (?v2 S2) (?v3 S2)) (= (= (f4 (f41 f42 ?v0) ?v1) (f4 (f41 f42 ?v2) ?v3)) (and (= ?v0 ?v2) (= ?v1 ?v3)))))
(assert (forall ((?v0 S22) (?v1 S5) (?v2 S2)) (not (= (f36 f37 ?v0) (f4 (f5 f6 ?v1) ?v2)))))
(assert (forall ((?v0 S5) (?v1 S2) (?v2 S22)) (not (= (f4 (f5 f6 ?v0) ?v1) (f36 f37 ?v2)))))
(assert (forall ((?v0 S22)) (not (= (f36 f37 ?v0) f31))))
(assert (forall ((?v0 S22)) (not (= f31 (f36 f37 ?v0)))))
(assert (forall ((?v0 S2) (?v1 S2) (?v2 S5) (?v3 S2)) (not (= (f4 (f41 f42 ?v0) ?v1) (f4 (f5 f6 ?v2) ?v3)))))
(assert (forall ((?v0 S5) (?v1 S2) (?v2 S2) (?v3 S2)) (not (= (f4 (f5 f6 ?v0) ?v1) (f4 (f41 f42 ?v2) ?v3)))))
(assert (forall ((?v0 S2) (?v1 S2)) (not (= (f4 (f41 f42 ?v0) ?v1) f31))))
(assert (forall ((?v0 S2) (?v1 S2)) (not (= f31 (f4 (f41 f42 ?v0) ?v1)))))
(assert (forall ((?v0 S2) (?v1 S2) (?v2 S10) (?v3 S8) (?v4 S10)) (=> (= (f14 (f18 (f19 (f20 (f4 (f41 f42 ?v0) ?v1)) ?v2) ?v3) ?v4) f1) (=> (forall ((?v5 S10)) (=> (= (f14 (f18 (f19 (f20 ?v0) ?v2) ?v3) ?v5) f1) (=> (= (f14 (f18 (f19 (f20 ?v1) ?v5) ?v3) ?v4) f1) false))) false))))
(assert (forall ((?v0 S8) (?v1 S15) (?v2 S22) (?v3 S15)) (let ((?v_0 (f28 f29 ?v1))) (= (= (f11 (f12 ?v0) (f26 (f27 ?v_0 (f43 f44 (f45 f46 ?v2))) ?v3)) f1) (= (f11 (f12 (f21 f22 (+ (f23 f24 ?v0) 1))) (f26 (f27 ?v_0 (f36 f37 ?v2)) ?v3)) f1)))))
(assert (=> (= (f47 f31) f1) (=> false false)))
(assert (forall ((?v0 S2) (?v1 S2)) (=> (= (f47 (f4 (f41 f42 ?v0) ?v1)) f1) (=> (=> (= (f47 ?v0) f1) (=> (= (f47 ?v1) f1) false)) false))))
(assert (forall ((?v0 S5) (?v1 S10) (?v2 S2) (?v3 S8) (?v4 S10) (?v5 S2)) (=> (not (= (f14 ?v0 ?v1) f1)) (=> (= (f14 (f18 (f19 (f20 ?v2) ?v1) ?v3) ?v4) f1) (= (f14 (f18 (f19 (f20 (f4 (f41 (f48 f49 ?v0) ?v5) ?v2)) ?v1) ?v3) ?v4) f1)))))
(assert (forall ((?v0 S5) (?v1 S10) (?v2 S2) (?v3 S8) (?v4 S10) (?v5 S2)) (=> (= (f14 ?v0 ?v1) f1) (=> (= (f14 (f18 (f19 (f20 ?v2) ?v1) ?v3) ?v4) f1) (= (f14 (f18 (f19 (f20 (f4 (f41 (f48 f49 ?v0) ?v2) ?v5)) ?v1) ?v3) ?v4) f1)))))
(assert (forall ((?v0 S5) (?v1 S2) (?v2 S2) (?v3 S10) (?v4 S8) (?v5 S10)) (let ((?v_0 (= (f14 ?v0 ?v3) f1))) (=> (= (f14 (f18 (f19 (f20 (f4 (f41 (f48 f49 ?v0) ?v1) ?v2)) ?v3) ?v4) ?v5) f1) (=> (=> ?v_0 (=> (= (f14 (f18 (f19 (f20 ?v1) ?v3) ?v4) ?v5) f1) false)) (=> (=> (not ?v_0) (=> (= (f14 (f18 (f19 (f20 ?v2) ?v3) ?v4) ?v5) f1) false)) false))))))
(assert (forall ((?v0 S5) (?v1 S2)) (=> (= (f47 (f4 (f5 f6 ?v0) ?v1)) f1) (=> (=> (= (f47 ?v1) f1) false) false))))
(assert (forall ((?v0 S5) (?v1 S2) (?v2 S2)) (=> (= (f47 (f4 (f41 (f48 f49 ?v0) ?v1) ?v2)) f1) (=> (=> (= (f47 ?v1) f1) (=> (= (f47 ?v2) f1) false)) false))))
(assert (forall ((?v0 S22) (?v1 S10) (?v2 S8) (?v3 S10)) (=> (= (f14 (f18 (f19 (f20 (f43 f44 (f45 f46 ?v0))) ?v1) ?v2) ?v3) f1) (= (f14 (f18 (f19 (f20 (f36 f37 ?v0)) ?v1) (f21 f22 (+ (f23 f24 ?v2) 1))) ?v3) f1))))
(assert (forall ((?v0 S2) (?v1 S2) (?v2 S5)) (=> (= (f47 ?v0) f1) (=> (= (f47 ?v1) f1) (= (f47 (f4 (f41 (f48 f49 ?v2) ?v0) ?v1)) f1)))))
(assert (forall ((?v0 S5) (?v1 S2) (?v2 S2) (?v3 S5) (?v4 S2) (?v5 S2)) (= (= (f4 (f41 (f48 f49 ?v0) ?v1) ?v2) (f4 (f41 (f48 f49 ?v3) ?v4) ?v5)) (and (= ?v0 ?v3) (and (= ?v1 ?v4) (= ?v2 ?v5))))))
(assert (forall ((?v0 S2) (?v1 S5)) (=> (= (f47 ?v0) f1) (= (f47 (f4 (f5 f6 ?v1) ?v0)) f1))))
(assert (forall ((?v0 S5) (?v1 S2) (?v2 S2) (?v3 S22)) (not (= (f4 (f41 (f48 f49 ?v0) ?v1) ?v2) (f36 f37 ?v3)))))
(assert (forall ((?v0 S22) (?v1 S5) (?v2 S2) (?v3 S2)) (not (= (f36 f37 ?v0) (f4 (f41 (f48 f49 ?v1) ?v2) ?v3)))))
(assert (forall ((?v0 S2) (?v1 S2)) (=> (= (f47 ?v0) f1) (=> (= (f47 ?v1) f1) (= (f47 (f4 (f41 f42 ?v0) ?v1)) f1)))))
(assert (forall ((?v0 S5) (?v1 S2) (?v2 S2) (?v3 S5) (?v4 S2)) (not (= (f4 (f41 (f48 f49 ?v0) ?v1) ?v2) (f4 (f5 f6 ?v3) ?v4)))))
(assert (forall ((?v0 S5) (?v1 S2) (?v2 S5) (?v3 S2) (?v4 S2)) (not (= (f4 (f5 f6 ?v0) ?v1) (f4 (f41 (f48 f49 ?v2) ?v3) ?v4)))))
(assert (= (f47 f31) f1))
(assert (forall ((?v0 S5) (?v1 S2) (?v2 S2) (?v3 S2) (?v4 S2)) (not (= (f4 (f41 (f48 f49 ?v0) ?v1) ?v2) (f4 (f41 f42 ?v3) ?v4)))))
(assert (forall ((?v0 S2) (?v1 S2) (?v2 S5) (?v3 S2) (?v4 S2)) (not (= (f4 (f41 f42 ?v0) ?v1) (f4 (f41 (f48 f49 ?v2) ?v3) ?v4)))))
(assert (forall ((?v0 S5) (?v1 S2) (?v2 S2)) (not (= f31 (f4 (f41 (f48 f49 ?v0) ?v1) ?v2)))))
(assert (forall ((?v0 S5) (?v1 S2) (?v2 S2)) (not (= (f4 (f41 (f48 f49 ?v0) ?v1) ?v2) f31))))
(assert (forall ((?v0 S5) (?v1 S2) (?v2 S2)) (= (f38 f40 (f4 (f41 (f48 f49 ?v0) ?v1) ?v2)) (f21 f22 (+ (+ (f23 f24 (f38 f40 ?v1)) (f23 f24 (f38 f40 ?v2))) (+ 0 1))))))
(assert (forall ((?v0 S5) (?v1 S2) (?v2 S2)) (= (f38 f39 (f4 (f41 (f48 f49 ?v0) ?v1) ?v2)) (f21 f22 (+ (+ (f23 f24 (f38 f39 ?v1)) (f23 f24 (f38 f39 ?v2))) (+ 0 1))))))
(assert (forall ((?v0 S6) (?v1 S7)) (= (= (f9 ?v0 ?v1) f1) (= (f11 ?v1 ?v0) f1))))
(assert (forall ((?v0 S22) (?v1 S10) (?v2 S8) (?v3 S10)) (=> (= (f14 (f18 (f19 (f20 (f36 f37 ?v0)) ?v1) ?v2) ?v3) f1) (=> (forall ((?v4 S8)) (=> (= ?v2 (f21 f22 (+ (f23 f24 ?v4) 1))) (=> (= (f14 (f18 (f19 (f20 (f43 f44 (f45 f46 ?v0))) ?v1) ?v4) ?v3) f1) false))) false))))
(assert (forall ((?v0 S22) (?v1 S10) (?v2 S10)) (=> (= (f14 (f50 (f51 (f36 f37 ?v0)) ?v1) ?v2) f1) (=> (=> (= (f14 (f50 (f51 (f43 f44 (f45 f46 ?v0))) ?v1) ?v2) f1) false) false))))
(assert (forall ((?v0 S22) (?v1 S10) (?v2 S10)) (=> (= (f14 (f50 (f51 (f43 f44 (f45 f46 ?v0))) ?v1) ?v2) f1) (= (f14 (f50 (f51 (f36 f37 ?v0)) ?v1) ?v2) f1))))
(assert (forall ((?v0 S31) (?v1 S22) (?v2 S32)) (=> (= (f47 (f52 (f53 (f54 f55 ?v0) ?v1) ?v2)) f1) (=> (=> (= (f47 (f36 f37 ?v1)) f1) false) false))))
(assert (forall ((?v0 S22)) (=> (not (= (f45 f46 ?v0) f56)) (= (f47 (f36 f37 ?v0)) f1))))
(assert (forall ((?v0 S22)) (=> (= (f47 (f36 f37 ?v0)) f1) (=> (forall ((?v1 S2)) (=> (= (f45 f46 ?v0) (f57 f58 ?v1)) false)) false))))
(assert (forall ((?v0 S22) (?v1 S31) (?v2 S32)) (=> (= (f47 (f36 f37 ?v0)) f1) (= (f47 (f52 (f53 (f54 f55 ?v1) ?v0) ?v2)) f1))))
(assert (forall ((?v0 S5) (?v1 S10) (?v2 S2)) (=> (not (= (f14 ?v0 ?v1) f1)) (= (f14 (f50 (f51 (f4 (f5 f6 ?v0) ?v2)) ?v1) ?v1) f1))))
(assert (forall ((?v0 S5) (?v1 S10) (?v2 S2) (?v3 S10) (?v4 S10)) (let ((?v_0 (f51 (f4 (f5 f6 ?v0) ?v2)))) (=> (= (f14 ?v0 ?v1) f1) (=> (= (f14 (f50 (f51 ?v2) ?v1) ?v3) f1) (=> (= (f14 (f50 ?v_0 ?v3) ?v4) f1) (= (f14 (f50 ?v_0 ?v1) ?v4) f1)))))))
(assert (forall ((?v0 S5) (?v1 S10) (?v2 S2) (?v3 S10) (?v4 S2)) (=> (not (= (f14 ?v0 ?v1) f1)) (=> (= (f14 (f50 (f51 ?v2) ?v1) ?v3) f1) (= (f14 (f50 (f51 (f4 (f41 (f48 f49 ?v0) ?v4) ?v2)) ?v1) ?v3) f1)))))
(assert (forall ((?v0 S5) (?v1 S10) (?v2 S2) (?v3 S10) (?v4 S2)) (=> (= (f14 ?v0 ?v1) f1) (=> (= (f14 (f50 (f51 ?v2) ?v1) ?v3) f1) (= (f14 (f50 (f51 (f4 (f41 (f48 f49 ?v0) ?v2) ?v4)) ?v1) ?v3) f1)))))
(assert (forall ((?v0 S5) (?v1 S2) (?v2 S2) (?v3 S10) (?v4 S10)) (let ((?v_0 (= (f14 ?v0 ?v3) f1))) (=> (= (f14 (f50 (f51 (f4 (f41 (f48 f49 ?v0) ?v1) ?v2)) ?v3) ?v4) f1) (=> (=> ?v_0 (=> (= (f14 (f50 (f51 ?v1) ?v3) ?v4) f1) false)) (=> (=> (not ?v_0) (=> (= (f14 (f50 (f51 ?v2) ?v3) ?v4) f1) false)) false))))))
(assert (forall ((?v0 S2) (?v1 S10) (?v2 S10) (?v3 S2) (?v4 S10)) (=> (= (f14 (f50 (f51 ?v0) ?v1) ?v2) f1) (=> (= (f14 (f50 (f51 ?v3) ?v2) ?v4) f1) (= (f14 (f50 (f51 (f4 (f41 f42 ?v0) ?v3)) ?v1) ?v4) f1)))))
(assert (forall ((?v0 S10) (?v1 S10)) (=> (= (f14 (f50 (f51 f31) ?v0) ?v1) f1) (=> (=> (= ?v1 ?v0) false) false))))
(assert (forall ((?v0 S10)) (= (f14 (f50 (f51 f31) ?v0) ?v0) f1)))
(assert (forall ((?v0 S31) (?v1 S22) (?v2 S32) (?v3 S31) (?v4 S22) (?v5 S32)) (= (= (f52 (f53 (f54 f55 ?v0) ?v1) ?v2) (f52 (f53 (f54 f55 ?v3) ?v4) ?v5)) (and (= ?v0 ?v3) (and (= ?v1 ?v4) (= ?v2 ?v5))))))
(assert (forall ((?v0 S2) (?v1 S10) (?v2 S10) (?v3 S10)) (let ((?v_0 (f50 (f51 ?v0) ?v1))) (=> (= (f14 ?v_0 ?v2) f1) (=> (= (f14 ?v_0 ?v3) f1) (= ?v3 ?v2))))))
(assert (forall ((?v0 S2) (?v1 S10) (?v2 S10)) (= (= (f14 (f50 (f51 ?v0) ?v1) ?v2) f1) (exists ((?v3 S8)) (= (f14 (f18 (f19 (f20 ?v0) ?v1) ?v3) ?v2) f1)))))
(assert (forall ((?v0 S2) (?v1 S10) (?v2 S8) (?v3 S10)) (=> (= (f14 (f18 (f19 (f20 ?v0) ?v1) ?v2) ?v3) f1) (= (f14 (f50 (f51 ?v0) ?v1) ?v3) f1))))
(assert (forall ((?v0 S22) (?v1 S31) (?v2 S22) (?v3 S32)) (not (= (f36 f37 ?v0) (f52 (f53 (f54 f55 ?v1) ?v2) ?v3)))))
(assert (forall ((?v0 S31) (?v1 S22) (?v2 S32) (?v3 S22)) (not (= (f52 (f53 (f54 f55 ?v0) ?v1) ?v2) (f36 f37 ?v3)))))
(assert (forall ((?v0 S5) (?v1 S2) (?v2 S31) (?v3 S22) (?v4 S32)) (not (= (f4 (f5 f6 ?v0) ?v1) (f52 (f53 (f54 f55 ?v2) ?v3) ?v4)))))
(assert (forall ((?v0 S31) (?v1 S22) (?v2 S32) (?v3 S5) (?v4 S2)) (not (= (f52 (f53 (f54 f55 ?v0) ?v1) ?v2) (f4 (f5 f6 ?v3) ?v4)))))
(assert (forall ((?v0 S31) (?v1 S22) (?v2 S32) (?v3 S5) (?v4 S2) (?v5 S2)) (not (= (f52 (f53 (f54 f55 ?v0) ?v1) ?v2) (f4 (f41 (f48 f49 ?v3) ?v4) ?v5)))))
(assert (forall ((?v0 S5) (?v1 S2) (?v2 S2) (?v3 S31) (?v4 S22) (?v5 S32)) (not (= (f4 (f41 (f48 f49 ?v0) ?v1) ?v2) (f52 (f53 (f54 f55 ?v3) ?v4) ?v5)))))
(assert (forall ((?v0 S2) (?v1 S2) (?v2 S31) (?v3 S22) (?v4 S32)) (not (= (f4 (f41 f42 ?v0) ?v1) (f52 (f53 (f54 f55 ?v2) ?v3) ?v4)))))
(assert (forall ((?v0 S31) (?v1 S22) (?v2 S32) (?v3 S2) (?v4 S2)) (not (= (f52 (f53 (f54 f55 ?v0) ?v1) ?v2) (f4 (f41 f42 ?v3) ?v4)))))
(assert (forall ((?v0 S31) (?v1 S22) (?v2 S32)) (not (= (f52 (f53 (f54 f55 ?v0) ?v1) ?v2) f31))))
(assert (forall ((?v0 S31) (?v1 S22) (?v2 S32)) (not (= f31 (f52 (f53 (f54 f55 ?v0) ?v1) ?v2)))))
(assert (forall ((?v0 S31) (?v1 S22) (?v2 S32)) (= (f38 f39 (f52 (f53 (f54 f55 ?v0) ?v1) ?v2)) (f21 f22 0))))
(assert (forall ((?v0 S31) (?v1 S22) (?v2 S32)) (= (f38 f40 (f52 (f53 (f54 f55 ?v0) ?v1) ?v2)) (f21 f22 0))))
(assert (forall ((?v0 S2) (?v1 S2) (?v2 S10) (?v3 S10)) (=> (= (f14 (f50 (f51 (f4 (f41 f42 ?v0) ?v1)) ?v2) ?v3) f1) (=> (forall ((?v4 S10)) (=> (= (f14 (f50 (f51 ?v0) ?v2) ?v4) f1) (=> (= (f14 (f50 (f51 ?v1) ?v4) ?v3) f1) false))) false))))
(assert (forall ((?v0 S22) (?v1 S2)) (=> (= f59 f1) (=> (= (f45 f46 ?v0) (f57 f58 ?v1)) (= (f47 ?v1) f1)))))
(assert (forall ((?v0 S5) (?v1 S2) (?v2 S10) (?v3 S10)) (=> (= (f14 (f50 (f51 (f4 (f5 f6 ?v0) ?v1)) ?v2) ?v3) f1) (=> (=> (= ?v3 ?v2) (=> (not (= (f14 ?v0 ?v2) f1)) false)) (=> (forall ((?v4 S10)) (=> (= (f14 ?v0 ?v2) f1) (=> (= (f14 (f50 (f51 ?v1) ?v2) ?v4) f1) (=> (= (f14 (f50 (f51 (f4 (f5 f6 ?v0) ?v1)) ?v4) ?v3) f1) false)))) false)))))
(assert (forall ((?v0 S2) (?v1 S10) (?v2 S10)) (=> (= (f14 (f50 (f51 ?v0) ?v1) ?v2) f1) (exists ((?v3 S8)) (= (f14 (f18 (f19 (f20 ?v0) ?v1) ?v3) ?v2) f1)))))
(assert (forall ((?v0 S2)) (= (f43 f44 (f57 f58 ?v0)) ?v0)))
(assert (forall ((?v0 S27)) (= (not (= ?v0 f56)) (exists ((?v1 S2)) (= ?v0 (f57 f58 ?v1))))))
(assert (forall ((?v0 S2) (?v1 S2)) (= (= (f57 f58 ?v0) (f57 f58 ?v1)) (= ?v0 ?v1))))
(assert (forall ((?v0 S2)) (not (= f56 (f57 f58 ?v0)))))
(assert (forall ((?v0 S2)) (not (= (f57 f58 ?v0) f56))))
(assert (forall ((?v0 S27)) (= (forall ((?v1 S2)) (not (= ?v0 (f57 f58 ?v1)))) (= ?v0 f56))))
(assert (forall ((?v0 S27)) (=> (=> (= ?v0 f56) false) (=> (forall ((?v1 S2)) (=> (= ?v0 (f57 f58 ?v1)) false)) false))))
(assert (forall ((?v0 S8)) (= (f21 f22 (f23 f24 ?v0)) ?v0)))
(assert (forall ((?v0 Int)) (=> (<= 0 ?v0) (= (f23 f24 (f21 f22 ?v0)) ?v0))))
(assert (forall ((?v0 Int)) (=> (< ?v0 0) (= (f23 f24 (f21 f22 ?v0)) 0))))
(check-sat)
(exit)
